p cnf 91 377
10 20 21 22 -72 -77 0
2 3 24 -32 56 0
3 23 -33 56 59 0
4 23 -50 -51 68 0
-4 -63 78 82 84 0
7 8 9 -47 55 0
7 9 46 -47 64 0
-8 42 45 -60 83 0
10 11 12 -28 34 0
10 -21 22 -69 70 0
12 13 -73 -78 79 0
-17 22 -53 71 -72 0
-35 36 62 -63 82 0
7 9 55 64 -87 0
22 -69 -72 -77 88 0
39 -42 45 60 83 0
52 -63 -78 82 -84 0
1 7 42 46 0
2 3 -32 -62 0
-3 51 -68 91 0
7 46 -48 -55 0
-8 -43 45 -87 0
-8 -45 48 -55 0
11 57 -73 78 0
11 57 -76 -80 0
13 -31 -73 -79 0
13 49 67 85 0
13 49 85 -86 0
-14 -15 57 -73 0
-16 -19 -50 -89 0
-16 -23 67 -89 0
17 -44 -71 77 0
-17 -18 -19 -40 0
-18 -19 -38 -64 0
19 39 41 48 0
-19 50 -66 -89 0
20 53 -54 -70 0
22 69 70 88 0
-22 70 -71 72 0
23 32 -33 34 0
-23 -51 67 -89 0
25 33 56 59 0
25 74 -76 80 0
29 -30 -31 -73 0
38 -54 -72 81 0
-41 -64 70 -72 0
50 66 67 89 0
51 -68 -86 91 0
68 -81 -85 90 0
3 -32 -56 61 0
-5 -6 36 82 0
7 9 40 45 0
7 40 45 60 0
-7 -8 -42 -60 0
-8 -42 60 -83 0
10 11 -27 -28 0
10 20 -69 -72 0
-17 -40 44 77 0
-18 -19 -60 -69 0
-18 -19 -69 -77 0
-18 -47 -64 81 0
-19 -25 -33 59 0
-19 -50 -66 90 0
21 70 -72 88 0
-32 -33 -34 56 0
38 54 70 72 0
50 66 86 -89 0
52 -63 78 -84 0
66 67 89 -90 0
1 7 8 0
1 -7 -42 0
-1 -10 27 0
-1 -24 26 0
-1 -59 62 0
-1 70 -88 0
2 3 59 0
2 5 -62 0
2 -61 65 0
-2 -5 61 0
3 -50 -68 0
3 -51 68 0
3 -67 89 0
-3 16 49 0
-3 16 50 0
-3 -16 -23 0
-3 -23 91 0
4 19 -68 0
-4 -61 -63 0
-5 37 63 0
-5 74 -82 0
-5 -78 84 0
6 -36 -37 0
-6 29 37 0
-6 61 62 0
-6 -65 74 0
-7 -8 87 0
-8 10 12 0
-8 47 -64 0
-8 53 -70 0
-8 70 -88 0
9 -40 -87 0
-9 -40 43 0
-9 -45 -60 0
10 -25 -34 0
-10 -36 -83 0
-11 -14 58 0
-11 -15 80 0
-11 -29 30 0
12 -14 58 0
-12 78 -79 0
13 49 67 0
13 67 85 0
13 85 -86 0
13 -86 90 0
-13 -49 68 0
-13 -85 -91 0
14 78 79 0
-14 25 76 0
15 30 73 0
16 19 -51 0
-16 -49 68 0
17 18 54 0
17 19 39 0
17 23 54 0
17 44 -77 0
18 42 69 0
19 -36 -65 0
19 -76 -80 0
-19 -24 -25 0
-19 25 -27 0
-19 25 -74 0
-19 -31 79 0
-19 -41 -44 0
-19 -44 65 0
-19 -51 -81 0
-19 -81 85 0
-20 70 77 0
-21 -77 88 0
22 41 53 0
22 -44 -77 0
23 -30 -36 0
23 51 81 0
23 -65 75 0
23 -65 -80 0
23 -85 -91 0
-23 25 -34 0
-23 -28 31 0
-23 30 36 0
-23 -40 -43 0
-23 -47 -55 0
-23 65 80 0
-23 79 -84 0
24 35 -59 0
24 -35 59 0
-24 35 62 0
25 27 34 0
25 -30 33 0
25 75 76 0
-25 26 -28 0
-25 29 -36 0
-25 -65 -80 0
-25 -75 -76 0
-26 28 -31 0
-28 32 -91 0
29 30 33 0
29 -30 57 0
29 57 -78 0
32 56 -61 0
-33 -36 37 0
-33 -61 -80 0
-36 61 63 0
38 39 64 0
-38 -70 72 0
-39 -40 -44 0
-39 -41 -48 0
-39 -55 -60 0
40 -81 -85 0
44 47 -81 0
-46 47 -48 0
49 68 -86 0
49 85 -86 0
-49 -51 -91 0
51 68 -86 0
-52 -74 82 0
57 79 -80 0
58 76 80 0
58 -78 -79 0
-66 -86 -90 0
-67 86 -89 0
68 -81 90 0
1 8 0
1 24 0
1 40 0
1 69 0
1 -83 0
1 -87 0
-1 -70 0
-1 73 0
-1 -73 0
-1 84 0
2 6 0
2 69 0
2 -74 0
-2 -36 0
-2 74 0
-2 78 0
-2 84 0
3 10 0
3 -26 0
3 42 0
3 -42 0
3 50 0
3 61 0
3 -62 0
-3 -16 0
-3 49 0
-3 50 0
-3 51 0
-3 -51 0
-3 -68 0
-3 91 0
4 8 0
4 10 0
4 19 0
4 -52 0
4 61 0
4 -82 0
4 -84 0
4 89 0
-4 -84 0
5 10 0
5 -52 0
5 63 0
5 78 0
5 -78 0
5 -82 0
-5 52 0
6 35 0
6 -62 0
6 -82 0
-6 24 0
-6 65 0
7 8 0
7 -87 0
-7 -46 0
-7 -55 0
8 9 0
8 -10 0
8 -46 0
8 -47 0
8 55 0
8 -70 0
8 -88 0
-8 38 0
-8 -83 0
-8 88 0
9 40 0
9 46 0
9 -48 0
-9 -46 0
-9 87 0
10 -57 0
10 70 0
10 -70 0
10 -77 0
10 81 0
10 -90 0
-10 -11 0
-10 -12 0
-10 14 0
-10 -26 0
-10 -34 0
11 -12 0
11 13 0
11 -19 0
11 26 0
-11 31 0
-11 -57 0
-11 -70 0
12 13 0
12 14 0
12 80 0
-12 31 0
-12 -57 0
-12 -58 0
-12 73 0
-12 -78 0
13 -31 0
13 -90 0
13 91 0
-13 -67 0
-13 -85 0
-13 -91 0
14 31 0
14 -57 0
14 -58 0
14 73 0
14 -78 0
-14 15 0
-14 29 0
-14 78 0
-14 85 0
15 -29 0
15 31 0
15 -57 0
15 -58 0
-15 -30 0
-15 -31 0
16 49 0
16 51 0
-16 -50 0
-16 67 0
-16 85 0
17 23 0
17 38 0
17 -74 0
-17 -23 0
-17 -77 0
-17 -88 0
18 -19 0
18 21 0
18 41 0
18 47 0
18 64 0
-18 -48 0
-18 -77 0
19 -37 0
19 42 0
19 47 0
19 54 0
19 59 0
19 64 0
19 -67 0
19 68 0
19 69 0
19 75 0
19 85 0
19 87 0
19 -91 0
-19 -22 0
-19 -33 0
-19 36 0
-19 -48 0
-19 61 0
-19 71 0
-19 -77 0
-19 80 0
-19 81 0
-19 84 0
-19 -84 0
-19 -86 0
-19 -87 0
20 60 0
-20 21 0
-20 -21 0
-20 44 0
-20 69 0
-20 70 0
-20 72 0
21 -88 0
-21 53 0
-21 60 0
-21 83 0
-21 -88 0
22 -33 0
22 54 0
-22 41 0
-22 53 0
-22 -53 0
-22 -70 0
23 27 0
23 -36 0
23 -37 0
23 41 0
23 47 0
23 54 0
23 60 0
